language ESSENCE' 1.0
$ loaded file: carseqdata/csplib-instance-63
letting numcars=200
letting numclasses=26
letting numoptions=5
letting optMax=[1, 2, 1, 2, 1]
letting windowSize=[2, 3, 3, 5, 5]
letting numberPerClass=[6, 1, 40, 15, 10, 1, 1, 8, 22, 1, 8, 6, 3, 6, 1, 1, 1, 6, 6, 18, 11, 3, 13, 2, 5, 5]
letting optionsRequired=[[0, 0, 1, 0, 1], [0, 0, 1, 1, 1], [0, 1, 0, 0, 0], [1, 0, 0, 0, 0], [1, 0, 0, 1, 0], [1, 0, 0, 0, 1], [0, 1, 0, 1, 1], [1, 1, 0, 0, 1], [1, 1, 0, 0, 0], [0, 1, 1, 0, 1], [0, 1, 0, 0, 1], [0, 1, 1, 0, 0], [1, 0, 0, 1, 1], [0, 1, 1, 1, 0], [1, 1, 0, 1, 1], [1, 1, 1, 1, 0], [1, 0, 1, 0, 1], [1, 0, 1, 0, 0], [1, 0, 1, 1, 0], [0, 1, 0, 1, 0], [0, 0, 0, 1, 0], [0, 0, 0, 0, 1], [0, 0, 1, 0, 0], [1, 1, 1, 0, 0], [0, 0, 1, 0, 0], [1, 1, 0, 0, 0]]
